p cnf 45 25
3 30 9 0
18 30 7 0
-34 30 -15 0
-1 44 2 0
-38 27 -15 0
38 -11 25 0
12 40 12 0
24 -19 -45 0
-2 -10 -10 0
19 -20 -39 0
3 -27 10 0
-4 -38 -12 0
32 -39 21 0
-15 -43 -14 0
-14 8 17 0
29 -14 13 0
39 -11 -39 0
38 -1 -30 0
37 -42 19 0
36 10 8 0
11 8 -33 0
45 18 38 0
-18 25 23 0
-1 -32 6 0
33 12 -6 0
